p cnf 10 23
10 -9 7 0
-10 -8 2 0
10 -7 -4 0
-10 -5 -3 0
-10 5 -1 0
9 8 5 0
-9 -8 1 0
9 -8 -1 0
-9 8 1 0
-9 5 -4 0
9 5 3 0
9 4 -3 0
-8 -7 -5 0
-8 -7 -3 0
-8 -5 -4 0
-8 5 3 0
8 2 1 0
-7 -5 -4 0
-7 5 -1 0
7 4 -3 0
6 4 3 0
-5 -3 -1 0
4 -3 1 0
